decision_x1=[0,7];
decision_x2=[0,7];
decision_x3=[0,7];
decision_x4=[0,7];
decision_x5=[0,7];
decision_x6=[0,7];
decision_x7=[0,7];
decision_x8=[0,7];
decision_x9=[0,7];
decision_x10=[0,7];
decision_x11=[0,7];
decision_x12=[0,7];
decision_x13=[0,7];
decision_x14=[0,7];
decision_x15=[0,7];
decision_x16=[0,7];
decision_x17=[0,7];
decision_x18=[0,7];
decision_x19=[0,7];
decision_x20=[0,7];
random_y1=[0,7];
random_y2=[0,7];
random_y3=[0,7];
random_y4=[0,7];
random_y5=[0,7];
random_y6=[0,7];
random_y7=[0,7];
random_y8=[0,7];
random_y9=[0,7];
constraint_x2_x1=[
0,0,5.5|
0,1,1.5|
0,2,6.3|
0,3,7.1|
0,4,8.7|
0,5,9.8|
0,6,0.54|
0,7,5.9|
1,0,7.7|
1,1,0.00071|
1,2,3.4|
1,3,7.5|
1,4,1.7|
1,5,7.8|
1,6,3.2|
1,7,3|
2,0,6.8|
2,1,6|
2,2,2.9|
2,3,1.3|
2,4,2.2|
2,5,9.8|
2,6,1.4|
2,7,9.4|
3,0,3|
3,1,0.9|
3,2,7.5|
3,3,0.061|
3,4,0.76|
3,5,9.8|
3,6,2.3|
3,7,4.1|
4,0,8.8|
4,1,8.4|
4,2,7.7|
4,3,4.3|
4,4,5.7|
4,5,4.7|
4,6,4.8|
4,7,8|
5,0,4.8|
5,1,0.43|
5,2,0.063|
5,3,0.86|
5,4,4.4|
5,5,2.7|
5,6,5.4|
5,7,8.7|
6,0,1.5|
6,1,4.5|
6,2,4.4|
6,3,4.8|
6,4,0.095|
6,5,0.085|
6,6,0.063|
6,7,3.7|
7,0,2.7|
7,1,3|
7,2,3.4|
7,3,4.9|
7,4,0.92|
7,5,4.6|
7,6,2.4|
7,7,8.9|
];
constraint_x3_x2=[
0,0,3.7|
0,1,4.9|
0,2,7.8|
0,3,1.5|
0,4,1.1|
0,5,1.2|
0,6,8.2|
0,7,5.1|
1,0,8.4|
1,1,2.9|
1,2,5.4|
1,3,4.6|
1,4,2.1|
1,5,1.9|
1,6,2.2|
1,7,7.3|
2,0,4.6|
2,1,4.5|
2,2,4.5|
2,3,4.8|
2,4,8|
2,5,5.2|
2,6,8.6|
2,7,6.8|
3,0,7.6|
3,1,2.9|
3,2,0.79|
3,3,5.9|
3,4,4.2|
3,5,5.7|
3,6,9.6|
3,7,4.9|
4,0,6.3|
4,1,7.9|
4,2,2.7|
4,3,5.4|
4,4,9.7|
4,5,3.1|
4,6,0.082|
4,7,0.21|
5,0,2.6|
5,1,9.8|
5,2,2.7|
5,3,4|
5,4,6.1|
5,5,8.7|
5,6,5|
5,7,4.7|
6,0,0.6|
6,1,0.64|
6,2,0.021|
6,3,6.5|
6,4,0.92|
6,5,5.6|
6,6,0.82|
6,7,5.7|
7,0,2.5|
7,1,7.7|
7,2,0.35|
7,3,6.4|
7,4,7|
7,5,3.2|
7,6,7.4|
7,7,8.5|
];
constraint_x4_x3=[
0,0,3.5|
0,1,2.3|
0,2,5.1|
0,3,5.2|
0,4,3|
0,5,2.2|
0,6,2.2|
0,7,9.1|
1,0,4.9|
1,1,5.2|
1,2,7.6|
1,3,1.8|
1,4,0.84|
1,5,7.8|
1,6,6.4|
1,7,6.2|
2,0,6.5|
2,1,3.4|
2,2,0.59|
2,3,4.7|
2,4,0.98|
2,5,5.9|
2,6,1.9|
2,7,0.012|
3,0,9.1|
3,1,9.2|
3,2,1.4|
3,3,1.2|
3,4,5.3|
3,5,10|
3,6,7.8|
3,7,4.3|
4,0,5.8|
4,1,0.18|
4,2,1.7|
4,3,9.7|
4,4,1|
4,5,2.6|
4,6,6.5|
4,7,4.2|
5,0,4.8|
5,1,7.4|
5,2,0.46|
5,3,1.3|
5,4,0.44|
5,5,8.2|
5,6,8.3|
5,7,1.8|
6,0,1.7|
6,1,8.5|
6,2,6.5|
6,3,6.7|
6,4,1.5|
6,5,3.8|
6,6,1|
6,7,0.59|
7,0,2.5|
7,1,6.7|
7,2,2.5|
7,3,2.2|
7,4,6.9|
7,5,9.5|
7,6,8.5|
7,7,0.37|
];
constraint_x5_x1=[
0,0,3.5|
0,1,6.7|
0,2,6.3|
0,3,5.4|
0,4,8.4|
0,5,9.3|
0,6,4.6|
0,7,8.7|
1,0,10|
1,1,9.4|
1,2,7.8|
1,3,1.7|
1,4,0.82|
1,5,8.1|
1,6,4.8|
1,7,6|
2,0,9.2|
2,1,2.7|
2,2,2.4|
2,3,3.1|
2,4,5.5|
2,5,4.4|
2,6,2.3|
2,7,8.2|
3,0,7.8|
3,1,2.9|
3,2,4|
3,3,2|
3,4,4.2|
3,5,0.62|
3,6,1.5|
3,7,3.8|
4,0,9.3|
4,1,9.4|
4,2,1.6|
4,3,0.35|
4,4,7.1|
4,5,5.2|
4,6,1.7|
4,7,8.9|
5,0,7.2|
5,1,9.6|
5,2,1.2|
5,3,3.3|
5,4,2.2|
5,5,4.8|
5,6,9.6|
5,7,0.43|
6,0,1.4|
6,1,2.6|
6,2,5.4|
6,3,5.9|
6,4,9.5|
6,5,5.9|
6,6,5.8|
6,7,2.9|
7,0,7.6|
7,1,3.5|
7,2,9|
7,3,0.89|
7,4,7.4|
7,5,9.9|
7,6,4.4|
7,7,9.3|
];
constraint_x6_x2=[
0,0,10|
0,1,1.7|
0,2,4.6|
0,3,4.2|
0,4,4.1|
0,5,3.2|
0,6,2.6|
0,7,7.6|
1,0,6.9|
1,1,4.9|
1,2,5.1|
1,3,6.2|
1,4,5.5|
1,5,1.5|
1,6,2.5|
1,7,3|
2,0,0.18|
2,1,5.9|
2,2,6.1|
2,3,9.6|
2,4,0.34|
2,5,9.1|
2,6,5.5|
2,7,2.1|
3,0,3.6|
3,1,4.9|
3,2,1.7|
3,3,0.8|
3,4,5|
3,5,9.1|
3,6,9.2|
3,7,0.93|
4,0,9.7|
4,1,2.4|
4,2,8.1|
4,3,9.7|
4,4,9|
4,5,7.4|
4,6,9.3|
4,7,3.4|
5,0,4.1|
5,1,7.3|
5,2,4.7|
5,3,3|
5,4,9.4|
5,5,0.56|
5,6,1.9|
5,7,0.72|
6,0,1.6|
6,1,1.9|
6,2,4.6|
6,3,4.4|
6,4,9.2|
6,5,7.3|
6,6,7.5|
6,7,3.7|
7,0,7|
7,1,5.8|
7,2,1|
7,3,3.2|
7,4,9.2|
7,5,9.3|
7,6,6.5|
7,7,1.9|
];
constraint_x6_x5=[
0,0,4.3|
0,1,4.5|
0,2,6.8|
0,3,2.6|
0,4,8.7|
0,5,7.8|
0,6,7.1|
0,7,4.7|
1,0,9.4|
1,1,4|
1,2,5.3|
1,3,0.61|
1,4,6.5|
1,5,7|
1,6,1.9|
1,7,1.1|
2,0,5.4|
2,1,7.2|
2,2,6.7|
2,3,9.1|
2,4,1.9|
2,5,6.6|
2,6,2|
2,7,4.1|
3,0,0.85|
3,1,7.4|
3,2,2.1|
3,3,1.1|
3,4,8.3|
3,5,4.3|
3,6,9.3|
3,7,9.1|
4,0,1.4|
4,1,1.9|
4,2,2|
4,3,3.4|
4,4,6.7|
4,5,9.6|
4,6,5.4|
4,7,2.2|
5,0,2.4|
5,1,4.1|
5,2,2.9|
5,3,1.2|
5,4,7|
5,5,1.2|
5,6,2.5|
5,7,5|
6,0,1.5|
6,1,0.85|
6,2,2.6|
6,3,4.1|
6,4,4.3|
6,5,0.89|
6,6,7.5|
6,7,9.9|
7,0,0.15|
7,1,6.4|
7,2,6.2|
7,3,7|
7,4,1.6|
7,5,2.7|
7,6,1.7|
7,7,8.5|
];
constraint_x7_x3=[
0,0,4.8|
0,1,7.3|
0,2,5.9|
0,3,9.4|
0,4,6.8|
0,5,3|
0,6,1.1|
0,7,6.8|
1,0,4.4|
1,1,7.8|
1,2,6.8|
1,3,8.2|
1,4,1.7|
1,5,0.9|
1,6,4|
1,7,3.7|
2,0,5.9|
2,1,2.6|
2,2,8.4|
2,3,7.9|
2,4,8.6|
2,5,4.2|
2,6,9.7|
2,7,6.3|
3,0,9.2|
3,1,5.4|
3,2,2.7|
3,3,6.2|
3,4,0.39|
3,5,0.62|
3,6,5.1|
3,7,1.8|
4,0,1.4|
4,1,4.1|
4,2,7.8|
4,3,5.9|
4,4,0.27|
4,5,6.1|
4,6,6.7|
4,7,9.3|
5,0,4.9|
5,1,3.1|
5,2,5.3|
5,3,8.5|
5,4,7.5|
5,5,2|
5,6,3.1|
5,7,5.4|
6,0,6.5|
6,1,0.57|
6,2,8.3|
6,3,4.7|
6,4,2.6|
6,5,0.0016|
6,6,4.1|
6,7,6.9|
7,0,8.9|
7,1,1.4|
7,2,1.2|
7,3,3.6|
7,4,3.5|
7,5,8.5|
7,6,1.7|
7,7,8.3|
];
constraint_x7_x6=[
0,0,7.9|
0,1,0.53|
0,2,3.9|
0,3,0.2|
0,4,5.3|
0,5,3.1|
0,6,5.7|
0,7,4.5|
1,0,4.7|
1,1,8.9|
1,2,8|
1,3,1.8|
1,4,9.5|
1,5,0.53|
1,6,1.4|
1,7,0.058|
2,0,10|
2,1,0.45|
2,2,9.4|
2,3,8.1|
2,4,5.2|
2,5,7.9|
2,6,8.8|
2,7,9.6|
3,0,0.67|
3,1,3.2|
3,2,2.7|
3,3,1.4|
3,4,5.6|
3,5,9.1|
3,6,9.7|
3,7,6.6|
4,0,1.3|
4,1,0.4|
4,2,3.9|
4,3,10|
4,4,9.4|
4,5,8.7|
4,6,4.3|
4,7,2.3|
5,0,9.5|
5,1,2.4|
5,2,6.6|
5,3,7|
5,4,3.1|
5,5,8.9|
5,6,2.2|
5,7,7.9|
6,0,8.9|
6,1,8.5|
6,2,6.6|
6,3,6.3|
6,4,4.6|
6,5,9.7|
6,6,5.1|
6,7,7.6|
7,0,2.1|
7,1,7.2|
7,2,7.2|
7,3,1.4|
7,4,4.4|
7,5,0.59|
7,6,7.7|
7,7,7.3|
];
constraint_x8_x4=[
0,0,3.5|
0,1,9.2|
0,2,3.4|
0,3,7.8|
0,4,2.1|
0,5,9.1|
0,6,2.5|
0,7,0.62|
1,0,1.3|
1,1,5.2|
1,2,3.9|
1,3,2.8|
1,4,7.6|
1,5,5.5|
1,6,2.9|
1,7,2.5|
2,0,5.9|
2,1,6.4|
2,2,2.7|
2,3,7.5|
2,4,3.6|
2,5,8.6|
2,6,2.1|
2,7,3.1|
3,0,5.8|
3,1,6.2|
3,2,0.45|
3,3,3.3|
3,4,3.5|
3,5,3.2|
3,6,0.049|
3,7,7.5|
4,0,9.8|
4,1,4.6|
4,2,0.42|
4,3,4.6|
4,4,0.44|
4,5,6.4|
4,6,4.2|
4,7,8.7|
5,0,8.8|
5,1,4|
5,2,3.4|
5,3,7.4|
5,4,8.8|
5,5,2.2|
5,6,4.9|
5,7,5.7|
6,0,9.2|
6,1,8.6|
6,2,7.2|
6,3,5.3|
6,4,1.9|
6,5,1.5|
6,6,1.8|
6,7,3.6|
7,0,5.5|
7,1,2.6|
7,2,5.9|
7,3,5.4|
7,4,3.6|
7,5,2.2|
7,6,5.8|
7,7,2.1|
];
constraint_x8_x7=[
0,0,2.7|
0,1,8.7|
0,2,10|
0,3,5.9|
0,4,4.1|
0,5,1.9|
0,6,9.7|
0,7,6.5|
1,0,0.98|
1,1,6.9|
1,2,6.3|
1,3,8.1|
1,4,1.1|
1,5,1.9|
1,6,0.68|
1,7,1.9|
2,0,3.1|
2,1,6.2|
2,2,8.7|
2,3,4.7|
2,4,3|
2,5,5.8|
2,6,1.3|
2,7,1.8|
3,0,6.2|
3,1,4.4|
3,2,5.7|
3,3,9.5|
3,4,2.9|
3,5,6.5|
3,6,9.7|
3,7,7.2|
4,0,4.7|
4,1,4.9|
4,2,8.7|
4,3,8.9|
4,4,0.22|
4,5,0.53|
4,6,3.7|
4,7,4.3|
5,0,3.8|
5,1,8|
5,2,0.36|
5,3,6.6|
5,4,6.4|
5,5,4.5|
5,6,2.1|
5,7,7.8|
6,0,6|
6,1,4.2|
6,2,2.7|
6,3,5.7|
6,4,8.7|
6,5,1.2|
6,6,8.6|
6,7,1.4|
7,0,5.4|
7,1,0.21|
7,2,9|
7,3,2.2|
7,4,9.7|
7,5,9|
7,6,0.13|
7,7,1.7|
];
constraint_x9_x5=[
0,0,4.2|
0,1,1.2|
0,2,6.9|
0,3,5|
0,4,9.8|
0,5,2.7|
0,6,0.53|
0,7,6.5|
1,0,1.2|
1,1,8.2|
1,2,6.4|
1,3,8.2|
1,4,0.51|
1,5,7.1|
1,6,1.5|
1,7,8.2|
2,0,8.4|
2,1,2.5|
2,2,1.4|
2,3,5.1|
2,4,3.1|
2,5,3|
2,6,8.7|
2,7,2.7|
3,0,3.1|
3,1,3.7|
3,2,9.9|
3,3,2.3|
3,4,9.6|
3,5,4.7|
3,6,9.6|
3,7,4.5|
4,0,3.5|
4,1,7.3|
4,2,3.5|
4,3,9.6|
4,4,1.9|
4,5,4.6|
4,6,8.6|
4,7,1.9|
5,0,2.8|
5,1,1.2|
5,2,1.6|
5,3,9.6|
5,4,3.1|
5,5,6.1|
5,6,1.1|
5,7,5.3|
6,0,7.4|
6,1,2.5|
6,2,2.3|
6,3,0.75|
6,4,3.5|
6,5,5|
6,6,2.7|
6,7,1.6|
7,0,3.9|
7,1,7.1|
7,2,9.7|
7,3,9.6|
7,4,1.1|
7,5,9.5|
7,6,8|
7,7,0.2|
];
constraint_x10_x6=[
0,0,5.7|
0,1,1.9|
0,2,8|
0,3,0.35|
0,4,3.1|
0,5,5.5|
0,6,1.7|
0,7,1.5|
1,0,5.3|
1,1,9.3|
1,2,7.4|
1,3,9.1|
1,4,3|
1,5,8.6|
1,6,2.9|
1,7,6.9|
2,0,7|
2,1,0.93|
2,2,9.7|
2,3,6.3|
2,4,6.1|
2,5,1.2|
2,6,4.8|
2,7,6.1|
3,0,1.2|
3,1,2.2|
3,2,9.3|
3,3,2.9|
3,4,9.9|
3,5,1.9|
3,6,5.9|
3,7,5.6|
4,0,8.6|
4,1,7.5|
4,2,2.7|
4,3,7.6|
4,4,9.1|
4,5,3.8|
4,6,2.7|
4,7,8.6|
5,0,2.5|
5,1,6.6|
5,2,1.5|
5,3,4.7|
5,4,0.53|
5,5,5.8|
5,6,8|
5,7,1.8|
6,0,4|
6,1,0.92|
6,2,8|
6,3,0.15|
6,4,3.7|
6,5,8.9|
6,6,8.4|
6,7,8.4|
7,0,2.3|
7,1,1|
7,2,4.6|
7,3,9.7|
7,4,3.4|
7,5,8.5|
7,6,7.3|
7,7,1.5|
];
constraint_x10_x9=[
0,0,8.4|
0,1,5.7|
0,2,1.2|
0,3,8.5|
0,4,6|
0,5,6.8|
0,6,6|
0,7,7.7|
1,0,2.8|
1,1,7.2|
1,2,9.5|
1,3,2.3|
1,4,3.1|
1,5,6.2|
1,6,4.7|
1,7,9.9|
2,0,5.8|
2,1,0.51|
2,2,9.4|
2,3,7.2|
2,4,6.3|
2,5,5.2|
2,6,1.4|
2,7,0.15|
3,0,8|
3,1,0.66|
3,2,6.6|
3,3,5.4|
3,4,9.4|
3,5,5.3|
3,6,4.6|
3,7,7.2|
4,0,5.8|
4,1,9.1|
4,2,1.7|
4,3,6.1|
4,4,1.3|
4,5,5.9|
4,6,2.3|
4,7,8|
5,0,0.11|
5,1,3.4|
5,2,6.3|
5,3,6.2|
5,4,1.2|
5,5,8.9|
5,6,10|
5,7,2|
6,0,3.2|
6,1,8.6|
6,2,1.2|
6,3,4.8|
6,4,5|
6,5,6.2|
6,6,5.6|
6,7,9.7|
7,0,8.3|
7,1,2.5|
7,2,0.32|
7,3,8.9|
7,4,4.7|
7,5,6.2|
7,6,4.8|
7,7,6.5|
];
constraint_x11_x7=[
0,0,4.5|
0,1,7.1|
0,2,4.6|
0,3,1.7|
0,4,0.34|
0,5,5.8|
0,6,5|
0,7,4.7|
1,0,6.2|
1,1,6.1|
1,2,10|
1,3,2.2|
1,4,6.4|
1,5,4.1|
1,6,5.1|
1,7,1.3|
2,0,0.97|
2,1,2.7|
2,2,7.2|
2,3,6.8|
2,4,2.7|
2,5,0.96|
2,6,0.47|
2,7,0.045|
3,0,0.019|
3,1,9.9|
3,2,8.3|
3,3,0.41|
3,4,3.3|
3,5,7.3|
3,6,2.6|
3,7,6.1|
4,0,9.5|
4,1,5|
4,2,8.7|
4,3,9.2|
4,4,0.86|
4,5,7.4|
4,6,0.2|
4,7,1.5|
5,0,7.7|
5,1,7.4|
5,2,0.33|
5,3,1.1|
5,4,8|
5,5,2.2|
5,6,6.1|
5,7,7|
6,0,8.5|
6,1,2.3|
6,2,9.8|
6,3,3.8|
6,4,4.8|
6,5,0.53|
6,6,1.4|
6,7,0.42|
7,0,3.2|
7,1,2.5|
7,2,2.5|
7,3,3.8|
7,4,4|
7,5,4.4|
7,6,4.3|
7,7,6.2|
];
constraint_x11_x10=[
0,0,1.6|
0,1,9.8|
0,2,2.3|
0,3,6.4|
0,4,0.69|
0,5,5.4|
0,6,0.64|
0,7,9.8|
1,0,1.2|
1,1,2|
1,2,9.4|
1,3,9.9|
1,4,9.3|
1,5,0.21|
1,6,8.1|
1,7,8.7|
2,0,8|
2,1,6|
2,2,4.5|
2,3,5|
2,4,1.9|
2,5,0.15|
2,6,5.6|
2,7,7.5|
3,0,8|
3,1,3.4|
3,2,6.8|
3,3,8.1|
3,4,3.4|
3,5,9.8|
3,6,8.6|
3,7,8.8|
4,0,1.9|
4,1,7|
4,2,5.7|
4,3,6.5|
4,4,1.6|
4,5,8.6|
4,6,5.3|
4,7,0.43|
5,0,2.2|
5,1,1.4|
5,2,9.7|
5,3,8.4|
5,4,7|
5,5,0.17|
5,6,9.6|
5,7,1.2|
6,0,0.87|
6,1,2.7|
6,2,8.8|
6,3,3.7|
6,4,5.4|
6,5,8.1|
6,6,5.4|
6,7,8.3|
7,0,6.7|
7,1,1.4|
7,2,2.1|
7,3,5.1|
7,4,6|
7,5,5.2|
7,6,9.7|
7,7,6.6|
];
constraint_x12_x8=[
0,0,6.9|
0,1,5.3|
0,2,8.3|
0,3,9.7|
0,4,6.4|
0,5,4.4|
0,6,7|
0,7,6.6|
1,0,3.3|
1,1,8.8|
1,2,6.4|
1,3,4.3|
1,4,6.6|
1,5,3.7|
1,6,9.1|
1,7,5.2|
2,0,7|
2,1,8.2|
2,2,9.6|
2,3,4.8|
2,4,9.7|
2,5,9.1|
2,6,8.7|
2,7,0.097|
3,0,4.3|
3,1,4.8|
3,2,6.5|
3,3,8.7|
3,4,2.3|
3,5,0.46|
3,6,2.2|
3,7,4.8|
4,0,2.6|
4,1,6.1|
4,2,0.12|
4,3,9.1|
4,4,5.4|
4,5,9.2|
4,6,2.3|
4,7,0.6|
5,0,5.5|
5,1,0.42|
5,2,8.8|
5,3,0.15|
5,4,8.8|
5,5,9.8|
5,6,7.6|
5,7,5.1|
6,0,9.9|
6,1,0.79|
6,2,7.5|
6,3,9.7|
6,4,9.2|
6,5,4.7|
6,6,5.7|
6,7,1.1|
7,0,7.9|
7,1,8.4|
7,2,8.6|
7,3,8|
7,4,4.8|
7,5,9.5|
7,6,4.2|
7,7,9.9|
];
constraint_x12_x11=[
0,0,9.2|
0,1,4.8|
0,2,8|
0,3,7.6|
0,4,4|
0,5,4.5|
0,6,7.6|
0,7,2.8|
1,0,6.7|
1,1,3.4|
1,2,8.4|
1,3,8.1|
1,4,1.2|
1,5,1.6|
1,6,0.72|
1,7,7.3|
2,0,2|
2,1,3.4|
2,2,3.2|
2,3,1.5|
2,4,3.8|
2,5,7.7|
2,6,7.1|
2,7,7.4|
3,0,9|
3,1,3.9|
3,2,8.5|
3,3,6.4|
3,4,8.4|
3,5,3.3|
3,6,1.5|
3,7,7.9|
4,0,8.9|
4,1,3.8|
4,2,9.5|
4,3,3.7|
4,4,4.8|
4,5,1.6|
4,6,0.046|
4,7,7.2|
5,0,9|
5,1,7.4|
5,2,8.3|
5,3,9.9|
5,4,7.8|
5,5,1.7|
5,6,1.5|
5,7,3.5|
6,0,4.3|
6,1,0.74|
6,2,7.1|
6,3,9.8|
6,4,4.2|
6,5,8.9|
6,6,2.2|
6,7,0.52|
7,0,1.3|
7,1,9.9|
7,2,9.4|
7,3,6.1|
7,4,4|
7,5,0.56|
7,6,7.6|
7,7,1.6|
];
constraint_x13_x9=[
0,0,9.8|
0,1,3.6|
0,2,7.5|
0,3,9.7|
0,4,9.8|
0,5,8.9|
0,6,7.9|
0,7,6.3|
1,0,0.59|
1,1,3.3|
1,2,9.1|
1,3,3.4|
1,4,6.4|
1,5,0.38|
1,6,6.8|
1,7,0.62|
2,0,7.6|
2,1,7.4|
2,2,3.8|
2,3,6.2|
2,4,0.45|
2,5,2.2|
2,6,7.3|
2,7,7.2|
3,0,4.8|
3,1,3.2|
3,2,1.2|
3,3,9.9|
3,4,3.3|
3,5,5.8|
3,6,0.89|
3,7,6.4|
4,0,9.7|
4,1,5.1|
4,2,7.3|
4,3,5.7|
4,4,7.8|
4,5,8.6|
4,6,8.5|
4,7,2.4|
5,0,9.5|
5,1,2.2|
5,2,1.2|
5,3,8.1|
5,4,4.6|
5,5,4.6|
5,6,5|
5,7,7.7|
6,0,3.8|
6,1,6.7|
6,2,9.1|
6,3,2|
6,4,9.7|
6,5,5.5|
6,6,6.9|
6,7,7.7|
7,0,1.9|
7,1,1.5|
7,2,1.7|
7,3,8.3|
7,4,4.6|
7,5,6.5|
7,6,6.9|
7,7,1.7|
];
constraint_x14_x10=[
0,0,9.4|
0,1,4.1|
0,2,1.4|
0,3,1.5|
0,4,9.7|
0,5,0.52|
0,6,4.6|
0,7,4.7|
1,0,8.7|
1,1,9|
1,2,8|
1,3,6.4|
1,4,0.25|
1,5,1.9|
1,6,8.6|
1,7,6|
2,0,0.51|
2,1,2.7|
2,2,2.5|
2,3,3.6|
2,4,1.3|
2,5,0.82|
2,6,5|
2,7,8.4|
3,0,0.19|
3,1,2.3|
3,2,0.61|
3,3,6.9|
3,4,2.2|
3,5,3.9|
3,6,3.4|
3,7,4.4|
4,0,7.9|
4,1,4.1|
4,2,6.7|
4,3,5|
4,4,7.8|
4,5,4.8|
4,6,9.4|
4,7,8.6|
5,0,1.4|
5,1,1.8|
5,2,6.5|
5,3,6|
5,4,2|
5,5,2.2|
5,6,9.3|
5,7,5.9|
6,0,5.4|
6,1,6.8|
6,2,3.3|
6,3,3.3|
6,4,0.6|
6,5,4.3|
6,6,0.18|
6,7,3|
7,0,2.3|
7,1,5.4|
7,2,0.95|
7,3,5.5|
7,4,6.9|
7,5,0.073|
7,6,4.2|
7,7,3.3|
];
constraint_x15_x11=[
0,0,6.4|
0,1,2.4|
0,2,7.8|
0,3,6.3|
0,4,5.4|
0,5,1.9|
0,6,5.8|
0,7,8.1|
1,0,3.5|
1,1,5.1|
1,2,6.7|
1,3,5.4|
1,4,1.8|
1,5,7.5|
1,6,2.5|
1,7,0.77|
2,0,0.34|
2,1,8.9|
2,2,2.4|
2,3,9.5|
2,4,3.4|
2,5,0.5|
2,6,9.7|
2,7,5.6|
3,0,0.67|
3,1,9.2|
3,2,4.3|
3,3,6.6|
3,4,2.3|
3,5,7.1|
3,6,4.4|
3,7,0.21|
4,0,3.8|
4,1,1.3|
4,2,8.7|
4,3,2.1|
4,4,3|
4,5,5.7|
4,6,4.5|
4,7,3.2|
5,0,9|
5,1,0.72|
5,2,3.8|
5,3,5.3|
5,4,7.1|
5,5,0.18|
5,6,9.3|
5,7,6.9|
6,0,6.3|
6,1,5.1|
6,2,8.7|
6,3,9.3|
6,4,5.2|
6,5,2.2|
6,6,6.8|
6,7,1.5|
7,0,5.3|
7,1,3.8|
7,2,2.8|
7,3,8.5|
7,4,4.3|
7,5,1.1|
7,6,7.3|
7,7,6.9|
];
constraint_x16_x12=[
0,0,1.5|
0,1,5.7|
0,2,0.38|
0,3,2.4|
0,4,6|
0,5,3.2|
0,6,2.7|
0,7,3.8|
1,0,0.29|
1,1,5|
1,2,1.6|
1,3,8.3|
1,4,0.91|
1,5,2.9|
1,6,5.9|
1,7,2.7|
2,0,7.4|
2,1,9.6|
2,2,0.14|
2,3,4.5|
2,4,1.3|
2,5,2.7|
2,6,2.1|
2,7,1.8|
3,0,8.8|
3,1,0.056|
3,2,4.1|
3,3,0.82|
3,4,1.4|
3,5,4|
3,6,8.7|
3,7,1.6|
4,0,4.1|
4,1,3.6|
4,2,2.8|
4,3,3.1|
4,4,0.13|
4,5,8.1|
4,6,2.7|
4,7,9.1|
5,0,4|
5,1,6.9|
5,2,6.7|
5,3,1|
5,4,7.8|
5,5,9.9|
5,6,5.7|
5,7,6.1|
6,0,7.3|
6,1,8.2|
6,2,1.2|
6,3,9.4|
6,4,9.7|
6,5,6.3|
6,6,5|
6,7,1.5|
7,0,5.6|
7,1,8.7|
7,2,9.6|
7,3,3|
7,4,6.7|
7,5,3.2|
7,6,0.91|
7,7,5.5|
];
constraint_x17_x13=[
0,0,0.74|
0,1,0.81|
0,2,1.7|
0,3,4.9|
0,4,2.8|
0,5,7.1|
0,6,8.8|
0,7,2.5|
1,0,6.9|
1,1,6.5|
1,2,0.34|
1,3,7.2|
1,4,8.9|
1,5,9.6|
1,6,6.5|
1,7,9.5|
2,0,3|
2,1,2.5|
2,2,0.61|
2,3,2.4|
2,4,5.7|
2,5,4.3|
2,6,4.8|
2,7,6.1|
3,0,4.6|
3,1,9.4|
3,2,3.3|
3,3,4.6|
3,4,4.2|
3,5,1.2|
3,6,2.1|
3,7,6.5|
4,0,4|
4,1,4.5|
4,2,8.2|
4,3,2.6|
4,4,2.1|
4,5,2.6|
4,6,2.2|
4,7,3.3|
5,0,1.6|
5,1,9.6|
5,2,9.9|
5,3,4.7|
5,4,5.5|
5,5,8.5|
5,6,4.6|
5,7,6.4|
6,0,4.8|
6,1,0.71|
6,2,6.3|
6,3,3.2|
6,4,5.3|
6,5,2.2|
6,6,4.9|
6,7,8|
7,0,2.3|
7,1,0.11|
7,2,2.7|
7,3,1.9|
7,4,7.4|
7,5,5.8|
7,6,7.4|
7,7,0.53|
];
constraint_x18_x14=[
0,0,9|
0,1,0.26|
0,2,3.5|
0,3,7.1|
0,4,3|
0,5,1.5|
0,6,8.8|
0,7,0.62|
1,0,4.1|
1,1,3.1|
1,2,5.7|
1,3,1.9|
1,4,4.7|
1,5,1.8|
1,6,3|
1,7,3.7|
2,0,3.3|
2,1,2.9|
2,2,1.6|
2,3,8.9|
2,4,6|
2,5,5.4|
2,6,3.5|
2,7,2.6|
3,0,7.4|
3,1,4.1|
3,2,3.7|
3,3,10|
3,4,8|
3,5,4.3|
3,6,3|
3,7,3.3|
4,0,4.6|
4,1,1.8|
4,2,0.098|
4,3,4.3|
4,4,9.2|
4,5,3.3|
4,6,4.4|
4,7,6.4|
5,0,5.7|
5,1,1.8|
5,2,0.7|
5,3,6.7|
5,4,4.4|
5,5,4.1|
5,6,8.8|
5,7,8.8|
6,0,8.6|
6,1,9.2|
6,2,9.9|
6,3,7.8|
6,4,5.5|
6,5,5.8|
6,6,5.1|
6,7,7.4|
7,0,1.9|
7,1,8.8|
7,2,1.7|
7,3,4.2|
7,4,6.8|
7,5,4.6|
7,6,8.4|
7,7,1.1|
];
constraint_x19_x15=[
0,0,5.5|
0,1,9.6|
0,2,6.5|
0,3,0.66|
0,4,1.2|
0,5,3|
0,6,0.69|
0,7,8.8|
1,0,4.4|
1,1,0.99|
1,2,8.4|
1,3,5.3|
1,4,4.5|
1,5,6.7|
1,6,7.3|
1,7,0.41|
2,0,1.2|
2,1,4.2|
2,2,7.7|
2,3,4.2|
2,4,7|
2,5,9.9|
2,6,3.9|
2,7,3|
3,0,7.2|
3,1,4.5|
3,2,6.5|
3,3,4|
3,4,7.5|
3,5,9|
3,6,1.3|
3,7,3.1|
4,0,9.4|
4,1,1.9|
4,2,8.5|
4,3,2|
4,4,1.9|
4,5,0.62|
4,6,7.3|
4,7,2.9|
5,0,2.9|
5,1,7.9|
5,2,9.3|
5,3,6.4|
5,4,9.5|
5,5,9.6|
5,6,1.2|
5,7,1.6|
6,0,8.1|
6,1,3.3|
6,2,4.8|
6,3,10|
6,4,7.4|
6,5,7|
6,6,7.5|
6,7,1.2|
7,0,8.8|
7,1,5|
7,2,7.6|
7,3,8.1|
7,4,5.3|
7,5,0.71|
7,6,4.9|
7,7,5|
];
constraint_x20_x16=[
0,0,8.5|
0,1,2.8|
0,2,9.9|
0,3,1|
0,4,3.3|
0,5,7.2|
0,6,8.8|
0,7,1.8|
1,0,6.8|
1,1,0.017|
1,2,9.2|
1,3,8.4|
1,4,4.1|
1,5,6.1|
1,6,0.48|
1,7,9.5|
2,0,6.3|
2,1,8.2|
2,2,2.7|
2,3,9.9|
2,4,8.4|
2,5,6.7|
2,6,7.5|
2,7,9.3|
3,0,1.9|
3,1,3.7|
3,2,8|
3,3,5.7|
3,4,7|
3,5,3.5|
3,6,9.1|
3,7,0.65|
4,0,7.1|
4,1,6.9|
4,2,0.67|
4,3,8.2|
4,4,5.7|
4,5,8.5|
4,6,3.7|
4,7,3.5|
5,0,6.2|
5,1,7.4|
5,2,2.9|
5,3,1.2|
5,4,6.4|
5,5,2.6|
5,6,5.6|
5,7,7.4|
6,0,9.2|
6,1,8.8|
6,2,2.5|
6,3,0.9|
6,4,5.5|
6,5,0.98|
6,6,6.7|
6,7,3.7|
7,0,3.4|
7,1,1.6|
7,2,0.91|
7,3,7.7|
7,4,7.5|
7,5,8.6|
7,6,4.9|
7,7,9.5|
];
constraint_x1_y1=[
0,0,2.8|
0,1,7|
0,2,5.5|
0,3,5.8|
0,4,5.3|
0,5,5.7|
0,6,9.4|
0,7,9.7|
1,0,7.3|
1,1,2.1|
1,2,8.7|
1,3,1.7|
1,4,7.5|
1,5,2.8|
1,6,9.3|
1,7,6.4|
2,0,7.1|
2,1,7|
2,2,0.16|
2,3,4.5|
2,4,6.8|
2,5,2.7|
2,6,3.9|
2,7,7.2|
3,0,5.7|
3,1,9.1|
3,2,3.2|
3,3,7|
3,4,2.4|
3,5,6.9|
3,6,4.5|
3,7,5|
4,0,1.8|
4,1,5.7|
4,2,2.6|
4,3,3.8|
4,4,0.022|
4,5,3.5|
4,6,3.5|
4,7,3|
5,0,7.7|
5,1,10|
5,2,3.9|
5,3,7.2|
5,4,6.6|
5,5,7.4|
5,6,8.1|
5,7,3.8|
6,0,5|
6,1,5.9|
6,2,2.8|
6,3,1.5|
6,4,7.4|
6,5,6.1|
6,6,7.8|
6,7,3.7|
7,0,5|
7,1,9.9|
7,2,4.8|
7,3,1.2|
7,4,1.2|
7,5,4|
7,6,6.7|
7,7,9.3|
];
constraint_x2_y2=[
0,0,4.5|
0,1,5.1|
0,2,5.7|
0,3,5.4|
0,4,1.6|
0,5,1.1|
0,6,7.5|
0,7,2.7|
1,0,9.5|
1,1,4.6|
1,2,0.53|
1,3,9.1|
1,4,6|
1,5,1.5|
1,6,9.7|
1,7,6.1|
2,0,9.4|
2,1,3.9|
2,2,6.7|
2,3,3.9|
2,4,8.2|
2,5,0.25|
2,6,0.38|
2,7,5|
3,0,8.3|
3,1,5|
3,2,3|
3,3,2.2|
3,4,9.2|
3,5,3.4|
3,6,4.7|
3,7,2.9|
4,0,5.9|
4,1,4.5|
4,2,8.4|
4,3,2.5|
4,4,5.3|
4,5,4.8|
4,6,5.4|
4,7,1.2|
5,0,2.5|
5,1,8|
5,2,9.4|
5,3,0.9|
5,4,4.7|
5,5,6.3|
5,6,7.1|
5,7,2.3|
6,0,2.2|
6,1,8.5|
6,2,5.7|
6,3,0.24|
6,4,4.4|
6,5,5|
6,6,4.6|
6,7,4.3|
7,0,9.2|
7,1,6.5|
7,2,9.8|
7,3,6.6|
7,4,0.28|
7,5,9.6|
7,6,5.2|
7,7,8.6|
];
constraint_x3_y3=[
0,0,4.4|
0,1,3.6|
0,2,7.9|
0,3,7|
0,4,4.9|
0,5,4.4|
0,6,6.9|
0,7,0.52|
1,0,7.4|
1,1,1|
1,2,3.6|
1,3,6.2|
1,4,8|
1,5,9.7|
1,6,9|
1,7,4.5|
2,0,9.6|
2,1,7.8|
2,2,0.17|
2,3,5.5|
2,4,5.1|
2,5,6.8|
2,6,9.1|
2,7,5.8|
3,0,6.6|
3,1,9.9|
3,2,6.4|
3,3,8.9|
3,4,1.5|
3,5,0.27|
3,6,9.6|
3,7,9.6|
4,0,9.5|
4,1,8.6|
4,2,5.5|
4,3,1|
4,4,0.63|
4,5,6.6|
4,6,2.1|
4,7,7.8|
5,0,6.1|
5,1,7.2|
5,2,2.4|
5,3,5.6|
5,4,5.9|
5,5,6.8|
5,6,3.3|
5,7,6.6|
6,0,9.4|
6,1,7.4|
6,2,5.8|
6,3,5.4|
6,4,6.3|
6,5,5.8|
6,6,0.86|
6,7,8|
7,0,2.7|
7,1,5.8|
7,2,8.6|
7,3,8.8|
7,4,5.2|
7,5,7.8|
7,6,4.5|
7,7,9.7|
];
constraint_x4_y4=[
0,0,3.7|
0,1,0.77|
0,2,0.44|
0,3,2.8|
0,4,4|
0,5,6.8|
0,6,9.9|
0,7,0.56|
1,0,6|
1,1,2.2|
1,2,0.86|
1,3,5.2|
1,4,5.1|
1,5,3.2|
1,6,8.6|
1,7,0.12|
2,0,3.3|
2,1,7.4|
2,2,3.2|
2,3,1.1|
2,4,8.3|
2,5,7.4|
2,6,0.098|
2,7,6.1|
3,0,5.9|
3,1,10|
3,2,0.61|
3,3,1.8|
3,4,7.6|
3,5,5.8|
3,6,7.6|
3,7,1.4|
4,0,3.7|
4,1,7|
4,2,8.4|
4,3,2.2|
4,4,6.7|
4,5,5.2|
4,6,4.1|
4,7,0.11|
5,0,1.1|
5,1,8.8|
5,2,0.053|
5,3,3.1|
5,4,3.3|
5,5,0.95|
5,6,1.4|
5,7,6.1|
6,0,8.1|
6,1,8.7|
6,2,1.9|
6,3,5.8|
6,4,3.6|
6,5,4.9|
6,6,1.3|
6,7,1.8|
7,0,9.3|
7,1,6.9|
7,2,5|
7,3,6.8|
7,4,9.5|
7,5,3.8|
7,6,8.2|
7,7,9.5|
];
constraint_x5_y5=[
0,0,2.2|
0,1,0.95|
0,2,6.8|
0,3,6|
0,4,8.3|
0,5,2|
0,6,3|
0,7,8.7|
1,0,8.8|
1,1,6|
1,2,3.4|
1,3,6.7|
1,4,6.3|
1,5,1.1|
1,6,1.3|
1,7,2.4|
2,0,1|
2,1,8.1|
2,2,2.6|
2,3,1.9|
2,4,3.8|
2,5,6.4|
2,6,3.3|
2,7,8.6|
3,0,2.4|
3,1,7.4|
3,2,5.9|
3,3,1.8|
3,4,0.83|
3,5,9.9|
3,6,3|
3,7,4.2|
4,0,5|
4,1,6|
4,2,7.7|
4,3,5.1|
4,4,3.7|
4,5,0.3|
4,6,9.8|
4,7,0.7|
5,0,3.4|
5,1,9.8|
5,2,9.7|
5,3,0.19|
5,4,5.4|
5,5,0.83|
5,6,7|
5,7,0.39|
6,0,2.8|
6,1,7.8|
6,2,9.1|
6,3,3|
6,4,1.9|
6,5,7.7|
6,6,3.8|
6,7,1.8|
7,0,7.5|
7,1,0.47|
7,2,0.92|
7,3,1.3|
7,4,4.7|
7,5,3.6|
7,6,6.4|
7,7,1.9|
];
constraint_x6_y6=[
0,0,7.5|
0,1,4.9|
0,2,7.5|
0,3,4.3|
0,4,2.3|
0,5,2.4|
0,6,6.5|
0,7,8.8|
1,0,5.4|
1,1,1.3|
1,2,9.3|
1,3,0.36|
1,4,7.1|
1,5,6.7|
1,6,7.7|
1,7,5.4|
2,0,2.1|
2,1,5.3|
2,2,0.04|
2,3,2|
2,4,5.4|
2,5,8.9|
2,6,1.8|
2,7,1.6|
3,0,7.4|
3,1,1.3|
3,2,0.039|
3,3,8.6|
3,4,5.9|
3,5,9.8|
3,6,2|
3,7,1.7|
4,0,3.3|
4,1,6.3|
4,2,6.5|
4,3,0.64|
4,4,7.4|
4,5,6.5|
4,6,6.2|
4,7,5.1|
5,0,9.9|
5,1,3.3|
5,2,9.7|
5,3,0.52|
5,4,8.3|
5,5,3.4|
5,6,7.7|
5,7,9.7|
6,0,5.6|
6,1,1.2|
6,2,3.9|
6,3,8.7|
6,4,6.5|
6,5,8.8|
6,6,1.9|
6,7,5|
7,0,6.5|
7,1,9.8|
7,2,6.9|
7,3,2.3|
7,4,2.6|
7,5,8.4|
7,6,0.55|
7,7,5.8|
];
constraint_x7_y7=[
0,0,2.1|
0,1,3.5|
0,2,7.1|
0,3,2.3|
0,4,8.5|
0,5,2.8|
0,6,7.6|
0,7,4.8|
1,0,3.9|
1,1,7.4|
1,2,1.2|
1,3,2.7|
1,4,5|
1,5,5.5|
1,6,0.24|
1,7,6.7|
2,0,2.2|
2,1,8.8|
2,2,5.8|
2,3,1.7|
2,4,9.6|
2,5,0.65|
2,6,4.2|
2,7,7.2|
3,0,4.4|
3,1,7.5|
3,2,9.1|
3,3,3.1|
3,4,0.42|
3,5,2.6|
3,6,7.8|
3,7,8.2|
4,0,7.3|
4,1,1.5|
4,2,3|
4,3,8|
4,4,3.5|
4,5,0.57|
4,6,5.3|
4,7,5.2|
5,0,6.7|
5,1,9.9|
5,2,7.2|
5,3,5.8|
5,4,2.6|
5,5,4.8|
5,6,4.4|
5,7,8.3|
6,0,9.9|
6,1,9.2|
6,2,1.9|
6,3,2.1|
6,4,8.7|
6,5,9.1|
6,6,0.78|
6,7,8.6|
7,0,3.3|
7,1,3.2|
7,2,0.95|
7,3,4.5|
7,4,5.7|
7,5,1.9|
7,6,9|
7,7,1.4|
];
constraint_x8_y8=[
0,0,0.19|
0,1,8.6|
0,2,5.7|
0,3,2.5|
0,4,8.8|
0,5,2.4|
0,6,3.2|
0,7,0.6|
1,0,7.3|
1,1,3.1|
1,2,0.75|
1,3,0.72|
1,4,8.1|
1,5,2|
1,6,2.3|
1,7,9|
2,0,2.2|
2,1,1.4|
2,2,6.7|
2,3,1.7|
2,4,5.1|
2,5,3.9|
2,6,5.8|
2,7,0.1|
3,0,3.1|
3,1,8.6|
3,2,6.8|
3,3,8.2|
3,4,5.2|
3,5,2.7|
3,6,7.2|
3,7,1.6|
4,0,9.3|
4,1,7.3|
4,2,5.8|
4,3,4.4|
4,4,2.5|
4,5,2.7|
4,6,8.7|
4,7,3.1|
5,0,6.9|
5,1,7.1|
5,2,6.7|
5,3,7.1|
5,4,0.1|
5,5,6.7|
5,6,7.5|
5,7,8.6|
6,0,9.9|
6,1,4|
6,2,1.8|
6,3,6.3|
6,4,3.8|
6,5,4.7|
6,6,4.9|
6,7,6.8|
7,0,3|
7,1,3.8|
7,2,7.7|
7,3,9.9|
7,4,0.83|
7,5,4.2|
7,6,3.8|
7,7,10|
];
constraint_x9_y9=[
0,0,4|
0,1,7.9|
0,2,9|
0,3,1.2|
0,4,3.6|
0,5,3.4|
0,6,8.5|
0,7,0.34|
1,0,4.8|
1,1,6.9|
1,2,9.3|
1,3,4.1|
1,4,4.5|
1,5,2.2|
1,6,4.8|
1,7,7.7|
2,0,4|
2,1,5.5|
2,2,0.73|
2,3,2.9|
2,4,1.9|
2,5,7.2|
2,6,9.2|
2,7,6.9|
3,0,3.1|
3,1,2.5|
3,2,0.99|
3,3,5.8|
3,4,1.9|
3,5,4.1|
3,6,0.35|
3,7,0.94|
4,0,6.4|
4,1,8.1|
4,2,6|
4,3,4.2|
4,4,8.2|
4,5,7|
4,6,6.7|
4,7,7.2|
5,0,5|
5,1,3.6|
5,2,5.1|
5,3,8.6|
5,4,6.6|
5,5,0.51|
5,6,4.9|
5,7,1|
6,0,4.3|
6,1,3.5|
6,2,3.1|
6,3,4.3|
6,4,0.32|
6,5,4.5|
6,6,9.2|
6,7,4.9|
7,0,7.7|
7,1,6.1|
7,2,6.2|
7,3,3.6|
7,4,1|
7,5,2.7|
7,6,2.5|
7,7,2|
];
initial_distribution_y1=[0.066,0.18,0.039,0.19,0.15,0.026,0.25,0.11];
initial_distribution_y2=[0.28,0.012,0.088,0.16,0.083,0.085,0.078,0.22];
initial_distribution_y3=[0.13,0.018,0.12,0.23,0.13,0.23,0.028,0.11];
initial_distribution_y4=[0.18,0.22,0.23,0.056,0.15,0.017,0.081,0.072];
initial_distribution_y5=[0.18,0.15,0.091,0.16,0.036,0.08,0.16,0.14];
initial_distribution_y6=[0.18,0.027,0.066,0.049,0.19,0.18,0.23,0.069];
initial_distribution_y7=[0.21,0.11,0.053,0.24,0.036,0.21,0.12,0.018];
initial_distribution_y8=[0.21,0.14,0.082,0.087,0.16,0.072,0.21,0.04];
initial_distribution_y9=[0.15,0.1,0.099,0.15,0.13,0.18,0.1,0.086];
transition_y1=[
0.14,0.16,0.036,0.0075,0.17,0.13,0.12,0.24|
0.082,0.12,0.13,0.054,0.22,0.072,0.24,0.079|
0.15,0.13,0.16,0.13,0.058,0.12,0.14,0.1|
0.053,0.045,0.19,0.24,0.081,0.11,0.05,0.23|
0.055,0.28,0.014,0.087,0.054,0.26,0.23,0.027|
0.1,0.28,0.21,0.021,0.0097,0.02,0.26,0.09|
0.063,0.27,0.027,0.21,0.28,0.046,0.06,0.034|
0.073,0.39,0.045,0.038,0.061,0.024,0.12,0.25|
];
transition_y2=[
0.15,0.042,0.22,0.12,0.087,0.14,0.02,0.22|
0.042,0.1,0.17,0.17,0.19,0.081,0.2,0.044|
0.042,0.19,0.19,0.16,0.17,0.19,0.034,0.032|
0.13,0.15,0.077,0.17,0.15,0.16,0.013,0.14|
0.03,0.1,0.29,0.057,0.11,0.25,0.034,0.13|
0.018,0.084,0.22,0.013,0.24,0.25,0.053,0.12|
0.049,0.17,0.053,0.18,0.2,0.14,0.16,0.049|
0.087,0.16,0.053,0.28,0.19,0.04,0.056,0.13|
];
transition_y3=[
0.054,0.18,0.086,0.097,0.13,0.13,0.13,0.19|
0.24,0.14,0.11,0.14,0.17,0.031,0.091,0.082|
0.17,0.11,0.17,0.19,0.18,0.038,0.084,0.069|
0.16,0.19,0.028,0.2,0.12,0.035,0.22,0.051|
0.13,0.045,0.071,0.15,0.026,0.23,0.18,0.17|
0.08,0.08,0.14,0.19,0.14,0.066,0.31,0.0051|
0.058,0.17,0.18,0.11,0.075,0.2,0.18,0.037|
0.14,0.27,0.044,0.047,0.065,0.13,0.022,0.28|
];
transition_y4=[
0.12,0.18,0.046,0.17,0.14,0.098,0.16,0.085|
0.041,0.098,0.12,0.17,0.12,0.2,0.17,0.087|
0.25,0.22,0.063,0.11,0.036,0.1,0.21,0.0095|
0.17,0.15,0.26,0.011,0.11,0.051,0.098,0.16|
0.019,0.045,0.15,0.075,0.23,0.18,0.19,0.12|
0.095,0.094,0.16,0.089,0.065,0.19,0.18,0.13|
0.14,0.18,0.16,0.14,0.067,0.17,0.1,0.046|
0.15,0.12,0.13,0.14,0.12,0.15,0.086,0.1|
];
transition_y5=[
0.11,0.029,0.063,0.15,0.21,0.18,0.015,0.24|
0.025,0.098,0.18,0.16,0.17,0.16,0.022,0.17|
0.052,0.16,0.2,0.044,0.25,0.25,0.033,0.012|
0.19,0.099,0.22,0.056,0.089,0.12,0.17,0.053|
0.084,0.14,0.18,0.13,0.048,0.058,0.14,0.22|
0.18,0.23,0.021,0.17,0.2,0.1,0.076,0.035|
0.014,0.078,0.21,0.17,0.15,0.12,0.16,0.11|
0.16,0.025,0.18,0.19,0.092,0.12,0.11,0.13|
];
transition_y6=[
0.22,0.059,0.021,0.16,0.12,0.23,0.17,0.029|
0.27,0.043,0.032,0.14,0.059,0.29,0.13,0.029|
0.15,0.077,0.17,0.13,0.18,0.047,0.068,0.18|
0.028,0.18,0.2,0.11,0.22,0.082,0.0038,0.18|
0.19,0.028,0.13,0.098,0.071,0.23,0.01,0.25|
0.057,0.12,0.14,0.2,0.13,0.22,0.055,0.082|
0.13,0.16,0.16,0.033,0.13,0.23,0.032,0.13|
0.053,0.19,0.096,0.09,0.19,0.21,0.12,0.045|
];
transition_y7=[
0.012,0.15,0.14,0.11,0.17,0.17,0.084,0.16|
0.083,0.026,0.13,0.056,0.23,0.22,0.041,0.21|
0.19,0.11,0.18,0.099,0.12,0.18,0.063,0.066|
0.096,0.2,0.11,0.052,0.16,0.071,0.081,0.23|
0.15,0.05,0.2,0.17,0.06,0.073,0.17,0.13|
0.16,0.23,0.011,0.07,0.17,0.058,0.13,0.18|
0.0082,0.099,0.21,0.011,0.35,0.14,0.12,0.065|
0.15,0.16,0.088,0.14,0.019,0.18,0.2,0.06|
];
transition_y8=[
0.14,0.24,0.068,0.15,0.15,0.12,0.054,0.079|
0.018,0.031,0.22,0.15,0.013,0.22,0.24,0.11|
0.083,0.025,0.19,0.13,0.12,0.058,0.1,0.28|
0.13,0.091,0.21,0.14,0.036,0.28,0.039,0.082|
0.11,0.13,0.12,0.19,0.095,0.014,0.14,0.19|
0.1,0.26,0.18,0.14,0.13,0.023,0.043,0.12|
0.25,0.11,0.28,0.048,0.18,0.048,0.04,0.056|
0.038,0.26,0.045,0.083,0.13,0.086,0.16,0.2|
];
transition_y9=[
0.084,0.19,0.083,0.24,0.22,0.061,0.035,0.087|
0.2,0.079,0.19,0.0025,0.094,0.19,0.069,0.18|
0.12,0.14,0.055,0.084,0.24,0.11,0.15,0.1|
0.015,0.15,0.21,0.11,0.16,0.087,0.18,0.091|
0.17,0.24,0.058,0.011,0.24,0.11,0.15,0.028|
0.19,0.068,0.11,0.21,0.11,0.079,0.16,0.079|
0.089,0.099,0.17,0.19,0.11,0.044,0.17,0.13|
0.21,0.19,0.03,0.025,0.13,0.2,0.14,0.085|
];
